NAME : eil51.out.tour
COMMENT : Tour for eil51.tsp (Length 548)
TYPE : TOUR
DIMENSION : 51
TOUR_SECTION
23
24
13
5
26
17
3
16
14
43
41
18
40
12
39
44
32
36
46
11
45
50
0
31
10
4
37
48
9
38
29
33
20
28
1
15
49
8
21
47
2
19
34
35
27
30
25
7
22
6
42
23
-1
EOF